language ESSENCE' 1.0

letting jobs = 102
letting horizon = 782
letting resourcesRenew = 2
letting resourcesNonrenew = 2
letting resourceLimits = [62, 57, 594, 577]
letting successors = [[2, 3, 4, 5, 6, 7, 8, 9, 10, 11, 12, 13, 14, 15, 16, 18, 19, 20, 21, 22, 24, 27, 29, 30, 40], [99, 97, 67, 53, 52, 50, 47, 46, 45, 44, 37, 35, 34, 25, 23, 17], [101, 100, 98, 97, 68, 67, 55, 54, 53, 48, 46, 43, 39, 34, 33, 31, 26], [101, 98, 97, 93, 87, 67, 66, 61, 57, 51, 45, 43, 38, 33, 32], [101, 100, 97, 94, 57, 52, 42, 33, 31, 28], [101, 97, 94, 91, 90, 50, 45, 41, 33, 31], [99, 98, 93, 91, 90, 89, 88, 86, 82, 64, 62, 60, 58, 57, 54, 49, 48, 47, 46, 44], [100, 98, 97, 95, 93, 91, 90, 86, 76, 74, 68, 67, 65, 64, 63, 60, 59, 57, 47, 41], [100, 98, 97, 96, 95, 92, 91, 90, 89, 88, 87, 86, 85, 84, 81, 78, 77, 75, 74, 68, 67, 66, 60, 57, 56, 51, 43], [100, 97, 96, 95, 92, 91, 89, 88, 87, 86, 84, 82, 76, 75, 68, 65, 63, 62, 60, 57, 56, 39], [100, 99, 98, 96, 92, 88, 87, 76, 63, 62, 56, 54, 39, 36], [101, 96, 94, 92, 84, 79, 78, 70, 59, 58, 55, 31], [98, 95, 94, 93, 89, 86, 76, 74, 68, 66, 65, 61, 57, 54, 34], [100, 95, 94, 93, 88, 83, 81, 80, 79, 77, 63, 62, 61, 58, 55, 53, 47, 45], [100, 99, 95, 92, 87, 86, 84, 82, 80, 76, 74, 66, 61, 56, 54, 34], [99, 98, 97, 91, 89, 88, 87, 84, 82, 72, 68, 64, 62, 45, 39], [98, 96, 94, 93, 90, 88, 87, 86, 81, 79, 75, 74, 62, 60, 43, 41], [98, 97, 94, 91, 89, 84, 75, 73, 72, 64, 62, 53, 51, 39], [101, 96, 95, 94, 93, 88, 87, 85, 82, 81, 77, 74, 72, 63, 61, 57, 56, 45], [99, 98, 97, 91, 87, 86, 84, 78, 76, 75, 73, 66, 60, 56, 54, 39], [97, 95, 92, 91, 87, 86, 85, 84, 81, 77, 76, 75, 73, 72, 71, 67, 66, 65, 62, 59, 53], [99, 96, 94, 91, 86, 81, 79, 78, 74, 65, 60, 54, 46, 43], [100, 95, 92, 91, 89, 87, 84, 83, 65, 63, 60, 55, 39], [98, 91, 89, 87, 86, 85, 83, 81, 76, 75, 74, 71, 66, 64, 63, 62, 50], [94, 87, 84, 83, 76, 75, 73, 70, 64, 62, 56, 39], [99, 94, 92, 85, 84, 82, 81, 80, 78, 77, 76, 75, 74, 71, 69, 63, 60, 57], [95, 90, 89, 88, 84, 81, 79, 78, 77, 75, 74, 63, 60, 43], [92, 90, 89, 86, 85, 81, 80, 79, 78, 76, 74, 60, 46], [96, 95, 90, 89, 88, 86, 79, 75, 74, 69, 62, 43], [96, 95, 94, 93, 92, 91, 87, 84, 82, 77, 76, 75, 74, 73, 72, 71, 70, 69, 62], [99, 95, 93, 89, 87, 86, 85, 83, 81, 80, 76, 75, 74, 73, 64, 61, 56], [96, 95, 92, 91, 90, 84, 83, 82, 81, 79, 78, 76, 74, 72, 60, 56], [96, 89, 85, 84, 82, 81, 75, 72, 71, 69, 65, 63, 62, 60], [96, 91, 90, 88, 81, 79, 77, 75, 72, 71, 69, 63, 62, 60], [89, 86, 83, 81, 78, 76, 75, 73, 72, 71, 70, 66, 64, 58], [94, 91, 89, 86, 85, 84, 82, 79, 77, 75, 73, 72, 71, 69, 68], [101, 95, 88, 85, 82, 80, 75, 74, 73, 72, 71, 60, 57], [94, 88, 86, 83, 82, 81, 76, 75, 74, 73, 72, 64], [93, 90, 85, 81, 80, 79, 77, 74, 71, 61], [97, 96, 91, 88, 81, 77, 76, 75, 69, 62], [92, 89, 85, 84, 71, 54], [76, 74, 72, 67, 66, 56], [83, 82, 80, 76, 73, 72, 71, 70], [94, 83, 76, 75, 74, 73, 71, 70], [86, 78, 76, 75, 73, 69, 60], [84, 75, 72, 71, 63, 61], [92, 87, 75, 72, 70, 56], [87, 85, 79, 74, 73, 71, 69], [94, 83, 80, 77, 72], [79, 78, 72, 70], [82, 76, 70, 69], [92, 88, 74, 69], [78, 74, 60], [77, 72, 69], [82, 74, 72], [71, 69], [83, 79], [87, 69], [88, 80], [70], [69], [78], [73], [77], [80], [69], [70], [70], [102], [102], [102], [102], [102], [102], [102], [102], [102], [102], [102], [102], [102], [102], [102], [102], [102], [102], [102], [102], [102], [102], [102], [102], [102], [102], [102], [102], [102], [102], [102], [102], [102], []]
letting durations = [[0], [2, 4, 9], [4, 7, 8], [2, 4, 5], [3, 6, 7], [2, 4, 8], [3, 3, 9], [1, 4, 5], [2, 4, 9], [1, 6, 6], [4, 5, 9], [7, 9, 10], [5, 8, 9], [1, 7, 9], [7, 7, 9], [7, 8, 10], [1, 4, 7], [3, 4, 6], [6, 6, 7], [1, 3, 7], [7, 8, 10], [2, 4, 9], [3, 6, 7], [7, 8, 9], [2, 3, 8], [4, 7, 8], [1, 2, 4], [4, 7, 7], [1, 8, 10], [1, 2, 6], [3, 7, 9], [2, 3, 4], [3, 7, 8], [1, 2, 10], [2, 8, 10], [2, 7, 7], [2, 9, 10], [7, 7, 10], [2, 5, 8], [1, 8, 10], [4, 5, 7], [4, 8, 10], [1, 7, 8], [2, 8, 9], [9, 9, 10], [5, 6, 8], [5, 7, 7], [1, 2, 8], [1, 3, 4], [4, 4, 9], [3, 5, 6], [1, 2, 6], [1, 8, 9], [1, 2, 6], [6, 9, 10], [1, 5, 7], [1, 3, 4], [4, 7, 8], [2, 3, 6], [2, 4, 8], [1, 4, 5], [4, 9, 9], [2, 3, 8], [1, 2, 6], [1, 2, 4], [3, 7, 10], [1, 2, 3], [2, 4, 8], [6, 8, 10], [2, 3, 4], [1, 6, 9], [3, 3, 7], [1, 4, 6], [2, 5, 10], [3, 3, 9], [3, 6, 7], [3, 4, 8], [3, 5, 9], [1, 6, 10], [2, 2, 3], [5, 6, 7], [7, 8, 9], [2, 7, 10], [4, 4, 6], [5, 6, 7], [4, 6, 9], [8, 8, 9], [2, 5, 7], [4, 4, 10], [1, 7, 9], [2, 8, 9], [3, 7, 9], [6, 9, 10], [1, 6, 8], [5, 5, 9], [1, 2, 3], [3, 6, 9], [1, 4, 9], [2, 3, 6], [3, 6, 10], [8, 9, 9], [0]]
letting resourceUsage = [[[0, 0, 0, 0]], [[1, 0, 6, 5], [0, 2, 3, 4], [0, 2, 3, 3]], [[4, 0, 4, 10], [2, 0, 2, 8], [1, 0, 1, 6]], [[1, 0, 5, 10], [1, 0, 3, 9], [1, 0, 3, 8]], [[3, 0, 9, 4], [0, 2, 7, 3], [0, 2, 6, 2]], [[0, 3, 5, 8], [2, 0, 4, 4], [0, 2, 4, 3]], [[0, 2, 9, 10], [3, 0, 9, 6], [0, 1, 9, 3]], [[5, 0, 6, 7], [0, 4, 6, 5], [3, 0, 3, 5]], [[3, 0, 7, 10], [2, 0, 5, 5], [0, 1, 3, 2]], [[0, 5, 5, 6], [3, 0, 5, 5], [0, 3, 5, 4]], [[4, 0, 4, 10], [3, 0, 3, 8], [3, 0, 2, 7]], [[5, 0, 9, 2], [0, 4, 6, 2], [3, 0, 6, 2]], [[0, 4, 3, 8], [3, 0, 2, 6], [0, 2, 2, 4]], [[5, 0, 6, 10], [4, 0, 6, 9], [3, 0, 5, 8]], [[4, 0, 7, 8], [0, 2, 6, 7], [4, 0, 3, 7]], [[0, 3, 2, 7], [0, 3, 2, 5], [2, 0, 2, 3]], [[0, 4, 6, 5], [0, 2, 6, 5], [1, 0, 3, 5]], [[4, 0, 6, 9], [3, 0, 3, 8], [0, 4, 2, 7]], [[0, 3, 7, 3], [3, 0, 7, 2], [0, 2, 4, 1]], [[5, 0, 9, 4], [0, 3, 7, 2], [4, 0, 5, 2]], [[0, 3, 9, 4], [0, 2, 8, 4], [3, 0, 8, 4]], [[3, 0, 3, 8], [0, 1, 2, 6], [2, 0, 2, 6]], [[0, 3, 6, 9], [0, 2, 3, 8], [3, 0, 3, 6]], [[4, 0, 9, 5], [4, 0, 7, 4], [0, 2, 7, 4]], [[3, 0, 8, 4], [0, 4, 7, 3], [0, 3, 7, 3]], [[0, 3, 6, 7], [4, 0, 4, 4], [3, 0, 4, 3]], [[0, 2, 5, 6], [4, 0, 3, 5], [3, 0, 3, 3]], [[4, 0, 8, 9], [0, 2, 5, 8], [3, 0, 5, 8]], [[3, 0, 1, 6], [0, 3, 1, 5], [0, 3, 1, 4]], [[0, 5, 2, 7], [0, 4, 1, 5], [2, 0, 1, 3]], [[3, 0, 9, 5], [0, 3, 7, 5], [2, 0, 3, 5]], [[4, 0, 8, 3], [0, 3, 5, 1], [0, 3, 2, 1]], [[4, 0, 3, 7], [0, 5, 2, 7], [1, 0, 2, 6]], [[4, 0, 6, 8], [3, 0, 6, 6], [0, 3, 2, 4]], [[0, 5, 6, 9], [0, 3, 6, 8], [1, 0, 5, 8]], [[0, 3, 9, 7], [0, 2, 9, 6], [1, 0, 9, 5]], [[1, 0, 10, 3], [0, 4, 4, 3], [1, 0, 4, 2]], [[0, 4, 7, 6], [3, 0, 6, 6], [0, 3, 4, 6]], [[0, 4, 10, 8], [3, 0, 8, 7], [3, 0, 8, 6]], [[2, 0, 6, 5], [0, 3, 4, 3], [0, 2, 4, 2]], [[0, 3, 10, 7], [0, 2, 7, 7], [0, 2, 4, 5]], [[0, 4, 10, 5], [0, 4, 8, 5], [0, 3, 8, 2]], [[0, 2, 3, 6], [3, 0, 3, 5], [0, 2, 3, 5]], [[4, 0, 6, 7], [2, 0, 6, 7], [0, 2, 6, 6]], [[5, 0, 8, 6], [0, 2, 5, 4], [0, 2, 3, 2]], [[0, 1, 4, 8], [1, 0, 3, 6], [0, 1, 3, 4]], [[0, 1, 8, 7], [0, 1, 8, 5], [2, 0, 7, 4]], [[0, 5, 2, 6], [0, 3, 2, 5], [1, 0, 2, 2]], [[0, 1, 9, 9], [4, 0, 7, 7], [4, 0, 6, 3]], [[0, 1, 7, 4], [4, 0, 5, 4], [0, 1, 3, 4]], [[3, 0, 5, 6], [2, 0, 4, 6], [2, 0, 4, 5]], [[2, 0, 6, 4], [0, 4, 6, 4], [1, 0, 3, 3]], [[3, 0, 5, 8], [0, 2, 5, 6], [2, 0, 5, 6]], [[3, 0, 8, 4], [0, 3, 4, 4], [0, 3, 2, 4]], [[2, 0, 8, 2], [0, 1, 5, 2], [1, 0, 2, 2]], [[5, 0, 4, 6], [2, 0, 4, 5], [2, 0, 2, 2]], [[3, 0, 3, 8], [0, 1, 3, 7], [2, 0, 3, 6]], [[3, 0, 6, 4], [0, 3, 5, 4], [0, 3, 5, 3]], [[0, 4, 7, 5], [2, 0, 3, 5], [1, 0, 3, 4]], [[3, 0, 8, 10], [3, 0, 7, 9], [0, 2, 7, 8]], [[5, 0, 9, 3], [0, 3, 8, 3], [0, 3, 8, 2]], [[0, 2, 10, 8], [3, 0, 7, 5], [0, 2, 5, 4]], [[0, 3, 8, 1], [2, 0, 4, 1], [1, 0, 3, 1]], [[2, 0, 5, 7], [0, 3, 3, 7], [0, 3, 3, 5]], [[4, 0, 2, 10], [0, 3, 1, 7], [0, 2, 1, 4]], [[0, 2, 10, 5], [0, 1, 8, 4], [0, 1, 8, 3]], [[2, 0, 7, 5], [2, 0, 7, 4], [2, 0, 7, 3]], [[2, 0, 5, 10], [0, 3, 4, 7], [0, 2, 3, 2]], [[2, 0, 9, 5], [2, 0, 9, 4], [0, 5, 8, 5]], [[0, 5, 4, 8], [2, 0, 4, 4], [2, 0, 4, 3]], [[4, 0, 3, 5], [2, 0, 2, 4], [0, 5, 2, 2]], [[0, 4, 7, 4], [1, 0, 7, 3], [1, 0, 5, 2]], [[0, 4, 4, 2], [0, 4, 4, 1], [2, 0, 4, 1]], [[0, 3, 4, 7], [3, 0, 4, 7], [0, 2, 4, 4]], [[1, 0, 6, 7], [0, 3, 6, 3], [0, 1, 6, 1]], [[4, 0, 7, 7], [0, 1, 5, 6], [0, 1, 4, 5]], [[3, 0, 8, 6], [3, 0, 8, 5], [3, 0, 6, 3]], [[2, 0, 5, 8], [0, 1, 3, 8], [0, 1, 2, 8]], [[0, 4, 2, 4], [1, 0, 2, 4], [0, 1, 2, 3]], [[0, 5, 7, 6], [5, 0, 3, 6], [0, 5, 3, 2]], [[0, 4, 4, 5], [2, 0, 4, 5], [1, 0, 4, 1]], [[3, 0, 7, 5], [2, 0, 6, 4], [2, 0, 6, 3]], [[0, 5, 8, 6], [2, 0, 8, 5], [2, 0, 8, 3]], [[1, 0, 4, 6], [0, 4, 3, 4], [0, 4, 3, 3]], [[0, 3, 8, 9], [0, 2, 5, 8], [2, 0, 2, 7]], [[0, 1, 6, 9], [0, 1, 5, 7], [0, 1, 3, 6]], [[2, 0, 6, 8], [0, 3, 5, 5], [0, 3, 4, 5]], [[5, 0, 5, 4], [4, 0, 3, 2], [4, 0, 2, 1]], [[3, 0, 8, 2], [0, 3, 7, 2], [0, 2, 7, 2]], [[0, 3, 7, 10], [0, 2, 7, 6], [0, 2, 6, 5]], [[0, 2, 8, 10], [0, 2, 5, 7], [1, 0, 5, 6]], [[0, 4, 6, 9], [2, 0, 5, 8], [0, 2, 3, 8]], [[3, 0, 10, 4], [0, 4, 9, 2], [1, 0, 9, 2]], [[0, 4, 10, 6], [0, 4, 7, 6], [0, 4, 5, 5]], [[0, 4, 8, 1], [1, 0, 4, 2], [1, 0, 4, 1]], [[0, 4, 5, 2], [0, 4, 5, 1], [3, 0, 5, 1]], [[2, 0, 9, 7], [2, 0, 9, 6], [0, 2, 7, 6]], [[0, 2, 9, 6], [0, 2, 9, 5], [0, 2, 9, 4]], [[0, 1, 8, 7], [2, 0, 6, 7], [2, 0, 5, 7]], [[0, 4, 8, 8], [1, 0, 7, 8], [1, 0, 7, 6]], [[0, 5, 10, 8], [4, 0, 4, 6], [0, 4, 4, 5]], [[0, 0, 0, 0]]]
